
(set-logic HORN)
(declare-datatypes ((Bool_405 0)) (((false_405) (true_405))))
(declare-fun diseqBool_193 (Bool_405 Bool_405) Bool)
(declare-fun isfalse_193 (Bool_405) Bool)
(declare-fun istrue_193 (Bool_405) Bool)
(assert (isfalse_193 false_405))
(assert (istrue_193 true_405))
(assert (diseqBool_193 false_405 true_405))
(assert (diseqBool_193 true_405 false_405))
(declare-fun and_408 (Bool_405 Bool_405 Bool_405) Bool)
(declare-fun or_419 (Bool_405 Bool_405 Bool_405) Bool)
(declare-fun hence_405 (Bool_405 Bool_405 Bool_405) Bool)
(declare-fun not_410 (Bool_405 Bool_405) Bool)
(assert (and_408 false_405 false_405 false_405))
(assert (and_408 false_405 true_405 false_405))
(assert (and_408 false_405 false_405 true_405))
(assert (and_408 true_405 true_405 true_405))
(assert (or_419 false_405 false_405 false_405))
(assert (or_419 true_405 true_405 false_405))
(assert (or_419 true_405 false_405 true_405))
(assert (or_419 true_405 true_405 true_405))
(assert (hence_405 true_405 false_405 false_405))
(assert (hence_405 false_405 true_405 false_405))
(assert (hence_405 true_405 false_405 true_405))
(assert (hence_405 true_405 true_405 true_405))
(assert (not_410 true_405 false_405))
(assert (not_410 false_405 true_405))
(declare-datatypes ((T_17 0)) (((A_85) (B_82) (C_46))))
(declare-fun diseqT_16 (T_17 T_17) Bool)
(declare-fun isA_23 (T_17) Bool)
(declare-fun isB_23 (T_17) Bool)
(declare-fun isC_23 (T_17) Bool)
(assert (isA_23 A_85))
(assert (isB_23 B_82))
(assert (isC_23 C_46))
(assert (diseqT_16 A_85 B_82))
(assert (diseqT_16 A_85 C_46))
(assert (diseqT_16 B_82 A_85))
(assert (diseqT_16 C_46 A_85))
(assert (diseqT_16 B_82 C_46))
(assert (diseqT_16 C_46 B_82))
(declare-datatypes ((list_336 0)) (((nil_378) (cons_332 (head_664 T_17) (tail_668 list_336)))))
(declare-fun diseqlist_332 (list_336 list_336) Bool)
(declare-fun head_665 (T_17 list_336) Bool)
(declare-fun tail_669 (list_336 list_336) Bool)
(declare-fun isnil_378 (list_336) Bool)
(declare-fun iscons_332 (list_336) Bool)
(assert (forall ((x_77733 T_17) (x_77734 list_336))
	(head_665 x_77733 (cons_332 x_77733 x_77734))))
(assert (forall ((x_77733 T_17) (x_77734 list_336))
	(tail_669 x_77734 (cons_332 x_77733 x_77734))))
(assert (isnil_378 nil_378))
(assert (forall ((x_77736 T_17) (x_77737 list_336))
	(iscons_332 (cons_332 x_77736 x_77737))))
(assert (forall ((x_77738 T_17) (x_77739 list_336))
	(diseqlist_332 nil_378 (cons_332 x_77738 x_77739))))
(assert (forall ((x_77740 T_17) (x_77741 list_336))
	(diseqlist_332 (cons_332 x_77740 x_77741) nil_378)))
(assert (forall ((x_77742 T_17) (x_77743 list_336) (x_77744 T_17) (x_77745 list_336))
	(=> (diseqT_16 x_77742 x_77744) (diseqlist_332 (cons_332 x_77742 x_77743) (cons_332 x_77744 x_77745)))))
(assert (forall ((x_77742 T_17) (x_77743 list_336) (x_77744 T_17) (x_77745 list_336))
	(=> (diseqlist_332 x_77743 x_77745) (diseqlist_332 (cons_332 x_77742 x_77743) (cons_332 x_77744 x_77745)))))
(declare-datatypes ((R_542 0)) (((Nil_379) (Eps_60) (Atom_30 (projAtom_60 T_17)) (x_77683 (proj_160 R_542) (proj_161 R_542)) (x_77684 (proj_162 R_542) (proj_163 R_542)) (Star_30 (projStar_60 R_542)))))
(declare-fun diseqR_30 (R_542 R_542) Bool)
(declare-fun projAtom_61 (T_17 R_542) Bool)
(declare-fun proj_164 (R_542 R_542) Bool)
(declare-fun proj_165 (R_542 R_542) Bool)
(declare-fun proj_166 (R_542 R_542) Bool)
(declare-fun proj_167 (R_542 R_542) Bool)
(declare-fun projStar_61 (R_542 R_542) Bool)
(declare-fun isNil_379 (R_542) Bool)
(declare-fun isEps_30 (R_542) Bool)
(declare-fun isAtom_30 (R_542) Bool)
(declare-fun isx_54 (R_542) Bool)
(declare-fun isx_55 (R_542) Bool)
(declare-fun isStar_30 (R_542) Bool)
(assert (forall ((x_77748 T_17))
	(projAtom_61 x_77748 (Atom_30 x_77748))))
(assert (forall ((x_77750 R_542) (x_77751 R_542))
	(proj_164 x_77750 (x_77683 x_77750 x_77751))))
(assert (forall ((x_77750 R_542) (x_77751 R_542))
	(proj_165 x_77751 (x_77683 x_77750 x_77751))))
(assert (forall ((x_77753 R_542) (x_77754 R_542))
	(proj_166 x_77753 (x_77684 x_77753 x_77754))))
(assert (forall ((x_77753 R_542) (x_77754 R_542))
	(proj_167 x_77754 (x_77684 x_77753 x_77754))))
(assert (forall ((x_77756 R_542))
	(projStar_61 x_77756 (Star_30 x_77756))))
(assert (isNil_379 Nil_379))
(assert (isEps_30 Eps_60))
(assert (forall ((x_77758 T_17))
	(isAtom_30 (Atom_30 x_77758))))
(assert (forall ((x_77759 R_542) (x_77760 R_542))
	(isx_54 (x_77683 x_77759 x_77760))))
(assert (forall ((x_77761 R_542) (x_77762 R_542))
	(isx_55 (x_77684 x_77761 x_77762))))
(assert (forall ((x_77763 R_542))
	(isStar_30 (Star_30 x_77763))))
(assert (diseqR_30 Nil_379 Eps_60))
(assert (forall ((x_77764 T_17))
	(diseqR_30 Nil_379 (Atom_30 x_77764))))
(assert (forall ((x_77765 R_542) (x_77766 R_542))
	(diseqR_30 Nil_379 (x_77683 x_77765 x_77766))))
(assert (forall ((x_77767 R_542) (x_77768 R_542))
	(diseqR_30 Nil_379 (x_77684 x_77767 x_77768))))
(assert (forall ((x_77769 R_542))
	(diseqR_30 Nil_379 (Star_30 x_77769))))
(assert (diseqR_30 Eps_60 Nil_379))
(assert (forall ((x_77770 T_17))
	(diseqR_30 (Atom_30 x_77770) Nil_379)))
(assert (forall ((x_77771 R_542) (x_77772 R_542))
	(diseqR_30 (x_77683 x_77771 x_77772) Nil_379)))
(assert (forall ((x_77773 R_542) (x_77774 R_542))
	(diseqR_30 (x_77684 x_77773 x_77774) Nil_379)))
(assert (forall ((x_77775 R_542))
	(diseqR_30 (Star_30 x_77775) Nil_379)))
(assert (forall ((x_77776 T_17))
	(diseqR_30 Eps_60 (Atom_30 x_77776))))
(assert (forall ((x_77777 R_542) (x_77778 R_542))
	(diseqR_30 Eps_60 (x_77683 x_77777 x_77778))))
(assert (forall ((x_77779 R_542) (x_77780 R_542))
	(diseqR_30 Eps_60 (x_77684 x_77779 x_77780))))
(assert (forall ((x_77781 R_542))
	(diseqR_30 Eps_60 (Star_30 x_77781))))
(assert (forall ((x_77782 T_17))
	(diseqR_30 (Atom_30 x_77782) Eps_60)))
(assert (forall ((x_77783 R_542) (x_77784 R_542))
	(diseqR_30 (x_77683 x_77783 x_77784) Eps_60)))
(assert (forall ((x_77785 R_542) (x_77786 R_542))
	(diseqR_30 (x_77684 x_77785 x_77786) Eps_60)))
(assert (forall ((x_77787 R_542))
	(diseqR_30 (Star_30 x_77787) Eps_60)))
(assert (forall ((x_77788 T_17) (x_77789 R_542) (x_77790 R_542))
	(diseqR_30 (Atom_30 x_77788) (x_77683 x_77789 x_77790))))
(assert (forall ((x_77791 T_17) (x_77792 R_542) (x_77793 R_542))
	(diseqR_30 (Atom_30 x_77791) (x_77684 x_77792 x_77793))))
(assert (forall ((x_77794 T_17) (x_77795 R_542))
	(diseqR_30 (Atom_30 x_77794) (Star_30 x_77795))))
(assert (forall ((x_77796 R_542) (x_77797 R_542) (x_77798 T_17))
	(diseqR_30 (x_77683 x_77796 x_77797) (Atom_30 x_77798))))
(assert (forall ((x_77799 R_542) (x_77800 R_542) (x_77801 T_17))
	(diseqR_30 (x_77684 x_77799 x_77800) (Atom_30 x_77801))))
(assert (forall ((x_77802 R_542) (x_77803 T_17))
	(diseqR_30 (Star_30 x_77802) (Atom_30 x_77803))))
(assert (forall ((x_77804 R_542) (x_77805 R_542) (x_77806 R_542) (x_77807 R_542))
	(diseqR_30 (x_77683 x_77804 x_77805) (x_77684 x_77806 x_77807))))
(assert (forall ((x_77808 R_542) (x_77809 R_542) (x_77810 R_542))
	(diseqR_30 (x_77683 x_77808 x_77809) (Star_30 x_77810))))
(assert (forall ((x_77811 R_542) (x_77812 R_542) (x_77813 R_542) (x_77814 R_542))
	(diseqR_30 (x_77684 x_77811 x_77812) (x_77683 x_77813 x_77814))))
(assert (forall ((x_77815 R_542) (x_77816 R_542) (x_77817 R_542))
	(diseqR_30 (Star_30 x_77815) (x_77683 x_77816 x_77817))))
(assert (forall ((x_77818 R_542) (x_77819 R_542) (x_77820 R_542))
	(diseqR_30 (x_77684 x_77818 x_77819) (Star_30 x_77820))))
(assert (forall ((x_77821 R_542) (x_77822 R_542) (x_77823 R_542))
	(diseqR_30 (Star_30 x_77821) (x_77684 x_77822 x_77823))))
(assert (forall ((x_77824 T_17) (x_77825 T_17))
	(=> (diseqT_16 x_77824 x_77825) (diseqR_30 (Atom_30 x_77824) (Atom_30 x_77825)))))
(assert (forall ((x_77826 R_542) (x_77827 R_542) (x_77828 R_542) (x_77829 R_542))
	(=> (diseqR_30 x_77826 x_77828) (diseqR_30 (x_77683 x_77826 x_77827) (x_77683 x_77828 x_77829)))))
(assert (forall ((x_77826 R_542) (x_77827 R_542) (x_77828 R_542) (x_77829 R_542))
	(=> (diseqR_30 x_77827 x_77829) (diseqR_30 (x_77683 x_77826 x_77827) (x_77683 x_77828 x_77829)))))
(assert (forall ((x_77830 R_542) (x_77831 R_542) (x_77832 R_542) (x_77833 R_542))
	(=> (diseqR_30 x_77830 x_77832) (diseqR_30 (x_77684 x_77830 x_77831) (x_77684 x_77832 x_77833)))))
(assert (forall ((x_77830 R_542) (x_77831 R_542) (x_77832 R_542) (x_77833 R_542))
	(=> (diseqR_30 x_77831 x_77833) (diseqR_30 (x_77684 x_77830 x_77831) (x_77684 x_77832 x_77833)))))
(assert (forall ((x_77834 R_542) (x_77835 R_542))
	(=> (diseqR_30 x_77834 x_77835) (diseqR_30 (Star_30 x_77834) (Star_30 x_77835)))))
(declare-fun eps_61 (Bool_405 R_542) Bool)
(assert (forall ((y_2793 R_542))
	(eps_61 true_405 (Star_30 y_2793))))
(assert (forall ((x_77692 Bool_405) (x_77693 Bool_405) (x_77694 Bool_405) (r_543 R_542) (q_233 R_542))
	(=> (and (eps_61 x_77693 r_543) (eps_61 x_77694 q_233) (and_408 x_77692 x_77693 x_77694)) (eps_61 x_77692 (x_77684 r_543 q_233)))))
(assert (forall ((x_77695 Bool_405) (x_77696 Bool_405) (x_77697 Bool_405) (p_488 R_542) (q_234 R_542))
	(=> (and (eps_61 x_77696 p_488) (eps_61 x_77697 q_234) (or_419 x_77695 x_77696 x_77697)) (eps_61 x_77695 (x_77683 p_488 q_234)))))
(assert (eps_61 true_405 Eps_60))
(assert (forall ((x_77686 R_542) (x_77690 T_17))
	(eps_61 false_405 (Atom_30 x_77690))))
(assert (forall ((x_77686 R_542))
	(eps_61 false_405 Nil_379)))
(declare-fun step_30 (R_542 R_542 T_17) Bool)
(assert (forall ((x_77702 R_542) (p_489 R_542) (y_2794 T_17))
	(=> (step_30 x_77702 p_489 y_2794) (step_30 (x_77684 x_77702 (Star_30 p_489)) (Star_30 p_489) y_2794))))
(assert (forall ((x_77705 R_542) (x_77706 R_542) (r_544 R_542) (q_235 R_542) (y_2794 T_17))
	(=> (and (step_30 x_77705 r_544 y_2794) (step_30 x_77706 q_235 y_2794) (eps_61 true_405 r_544)) (step_30 (x_77683 (x_77684 x_77705 q_235) x_77706) (x_77684 r_544 q_235) y_2794))))
(assert (forall ((x_77709 R_542) (r_544 R_542) (q_235 R_542) (y_2794 T_17))
	(=> (and (step_30 x_77709 r_544 y_2794) (eps_61 false_405 r_544)) (step_30 (x_77683 (x_77684 x_77709 q_235) Nil_379) (x_77684 r_544 q_235) y_2794))))
(assert (forall ((x_77711 R_542) (x_77712 R_542) (p_490 R_542) (q_236 R_542) (y_2794 T_17))
	(=> (and (step_30 x_77711 p_490 y_2794) (step_30 x_77712 q_236 y_2794)) (step_30 (x_77683 x_77711 x_77712) (x_77683 p_490 q_236) y_2794))))
(assert (forall ((b_83 T_17))
	(step_30 Eps_60 (Atom_30 b_83) b_83)))
(assert (forall ((b_83 T_17) (y_2794 T_17))
	(=> (diseqT_16 b_83 y_2794) (step_30 Nil_379 (Atom_30 b_83) y_2794))))
(assert (forall ((x_77688 R_542) (y_2794 T_17))
	(step_30 Nil_379 Eps_60 y_2794)))
(assert (forall ((x_77688 R_542) (y_2794 T_17))
	(step_30 Nil_379 Nil_379 y_2794)))
(declare-fun rec_16 (Bool_405 R_542 list_336) Bool)
(assert (forall ((x_77717 Bool_405) (x_77718 R_542) (z_2464 T_17) (xs_814 list_336) (x_77689 R_542))
	(=> (and (step_30 x_77718 x_77689 z_2464) (rec_16 x_77717 x_77718 xs_814)) (rec_16 x_77717 x_77689 (cons_332 z_2464 xs_814)))))
(assert (forall ((x_77720 Bool_405) (x_77689 R_542))
	(=> (eps_61 x_77720 x_77689) (rec_16 x_77720 x_77689 nil_378))))
(assert (forall ((p_491 R_542) (q_237 R_542) (s_570 list_336))
	(=> (and true (rec_16 true_405 (Star_30 (x_77683 p_491 q_237)) s_570) (rec_16 false_405 (x_77683 (Star_30 p_491) (Star_30 q_237)) s_570)) false)))
(check-sat)
